\ This file has been generated by DOcplex
\ ENCODING=ISO-8859-1
\Problem name: Max-cut

Maximize
 obj: 3 x_0 + 3 x_1 + 3 x_2 + 3 x_3 + 3 x_4 + 3 x_5 + 3 x_6 + 3 x_7 + 3 x_8
      + 3 x_9 + [ - 4 x_0*x_3 - 4 x_0*x_5 - 4 x_0*x_7 - 4 x_1*x_2 - 4 x_1*x_4
      - 4 x_1*x_6 - 4 x_2*x_3 - 4 x_2*x_8 - 4 x_3*x_5 - 4 x_4*x_6 - 4 x_4*x_9
      - 4 x_5*x_8 - 4 x_6*x_9 - 4 x_7*x_8 - 4 x_7*x_9 ]/2
Subject To

Bounds
 0 <= x_0 <= 1
 0 <= x_1 <= 1
 0 <= x_2 <= 1
 0 <= x_3 <= 1
 0 <= x_4 <= 1
 0 <= x_5 <= 1
 0 <= x_6 <= 1
 0 <= x_7 <= 1
 0 <= x_8 <= 1
 0 <= x_9 <= 1

Binaries
 x_0 x_1 x_2 x_3 x_4 x_5 x_6 x_7 x_8 x_9
End
